Clp0006I 0  Obj 0 Primal inf 199.99998 (200) Dual inf 2527878.4 (10000)
Clp0006I 167  Obj -49241.174 Primal inf 30.999997 (30)
Clp0006I 229  Obj -49174.197
Clp0000I Optimal - objective value -49174.197
Clp0000I Optimal - objective value -49174.197
Node 0 depth 0 unsatisfied 0 sum 0 obj -49174.2 guess -49174.2 branching on -1
Clp0000I Optimal - objective value -49174.197
Cbc0004I Integer solution of -49174.197 found after 0 iterations and 0 nodes (0.03 seconds)
Cbc0001I Search completed - best objective -49174.19699999999, took 0 iterations and 0 nodes (0.03 seconds)
Cbc0035I Maximum depth 0, 0 variables fixed on reduced cost
Clp0000I Optimal - objective value -49174.197
Clp0000I Optimal - objective value -49174.197
x_86 = 1
x_199 = 1
x_298 = 1
x_312 = 1
x_483 = 1
x_556 = 1
x_689 = 1
x_763 = 1
x_848 = 1
x_938 = 1
x_1016 = 1
x_1188 = 1
x_1295 = 1
x_1303 = 1
x_1415 = 1
x_1533 = 1
x_1690 = 1
x_1725 = 1
x_1811 = 1
x_1981 = 1
x_2051 = 1
x_2197 = 1
x_2235 = 1
x_2300 = 1
x_2467 = 1
x_2531 = 1
x_2637 = 1
x_2705 = 1
x_2854 = 1
x_2952 = 1
x_3002 = 1
x_3127 = 1
x_3271 = 1
x_3365 = 1
x_3449 = 1
x_3547 = 1
x_3668 = 1
x_3729 = 1
x_3850 = 1
x_3944 = 1
x_4079 = 1
x_4184 = 1
x_4260 = 1
x_4324 = 1
x_4482 = 1
x_4577 = 1
x_4646 = 1
x_4773 = 1
x_4818 = 1
x_4901 = 1
x_5059 = 1
x_5172 = 1
x_5280 = 1
x_5330 = 1
x_5493 = 1
x_5536 = 1
x_5608 = 1
x_5740 = 1
x_5804 = 1
x_5975 = 1
x_6023 = 1
x_6145 = 1
x_6264 = 1
x_6320 = 1
x_6453 = 1
x_6562 = 1
x_6617 = 1
x_6791 = 1
x_6841 = 1
x_6943 = 1
x_7009 = 1
x_7122 = 1
x_7287 = 1
x_7385 = 1
x_7492 = 1
x_7574 = 1
x_7676 = 1
x_7714 = 1
x_7819 = 1
x_7934 = 1
x_8070 = 1
x_8196 = 1
x_8294 = 1
x_8366 = 1
x_8407 = 1
x_8561 = 1
x_8639 = 1
x_8721 = 1
x_8813 = 1
x_8910 = 1
x_9078 = 1
x_9142 = 1
x_9232 = 1
x_9369 = 1
x_9458 = 1
x_9526 = 1
x_9657 = 1
x_9706 = 1
x_9828 = 1
x_9955 = 1
real 0m0,080s user 0m0,064s sys 0m0,015s
